p cnf 133 161               
9 -65 0
-1 32 0
-2 32 0
-3 32 0
-4 32 0
-5 32 0
-6 32 0
-7 32 0
-8 32 0
1 2 3 4 5 6 7 8 -32 0
-9 1 -55 0
55 -63 0
-10 2 -56 0
56 -63 0
-11 3 -57 0
57 -63 0
-12 4 -58 0
58 -63 0
-13 5 -59 0
59 -63 0
-14 6 -60 0
60 -63 0
-15 7 -61 0
61 -63 0
-16 8 -62 0
62 -63 0
-32 63 -64 0
64 -65 0
65 73 0
-1 73 0
10 -66 0
64 -66 0
66 74 0
-2 74 0
11 -67 0
64 -67 0
67 75 0
-3 75 0
12 -68 0
64 -68 0
68 76 0
-4 76 0
13 -69 0
64 -69 0
69 77 0
-5 77 0
14 -70 0
64 -70 0
70 78 0
-6 78 0
15 -71 0
64 -71 0
71 79 0
-7 79 0
16 -72 0
64 -72 0
72 80 0
-8 80 0
-73 -74 -75 -76 -77 -78 -79 -80 81 0
-81 -82 0
-10 -9 -17 0
17 -31 0
-9 18 0
-10 18 0
9 10 -18 0
-18 -11 -19 0
19 -31 0
-11 20 0
-18 20 0
11 18 -20 0
-20 -12 -21 0
21 -31 0
-12 22 0
-20 22 0
12 20 -22 0
-22 -13 -23 0
23 -31 0
-13 24 0
-22 24 0
13 22 -24 0
-24 -14 -25 0
25 -31 0
-14 26 0
-24 26 0
14 24 -26 0
-26 -15 -27 0
27 -31 0
-15 28 0
-26 28 0
15 26 -28 0
-28 -16 -29 0
29 -31 0
16 28 -30 0
30 -31 0
31 -82 0
32 -82 0
-1 2 -83 0
83 -89 0
-1 -2 84 0
1 2 84 0
-2 2 84 0
-9 10 -85 0
-84 85 -86 0
86 -89 0
89 -132 0
-2 3 -90 0
90 -96 0
-2 -3 91 0
2 3 91 0
-3 3 91 0
-10 11 -92 0
-91 92 -93 0
93 -96 0
96 -132 0
-3 4 -97 0
97 -103 0
-3 -4 98 0
3 4 98 0
-4 4 98 0
-11 12 -99 0
-98 99 -100 0
100 -103 0
103 -132 0
-4 5 -104 0
104 -110 0
-4 -5 105 0
4 5 105 0
-5 5 105 0
-12 13 -106 0
-105 106 -107 0
107 -110 0
110 -132 0
-5 6 -111 0
111 -117 0
-5 -6 112 0
5 6 112 0
-6 6 112 0
-13 14 -113 0
-112 113 -114 0
114 -117 0
117 -132 0
-6 7 -118 0
118 -124 0
-6 -7 119 0
6 7 119 0
-7 7 119 0
-14 15 -120 0
-119 120 -121 0
121 -124 0
124 -132 0
-7 8 -125 0
125 -131 0
-7 -8 126 0
7 8 126 0
-8 8 126 0
-15 16 -127 0
-126 127 -128 0
128 -131 0
131 -132 0
82 0
132 0
